c generated by sgen
p cnf 61 132
-2 -3 -4 0
-1 -3 -4 0
-1 -2 -4 0
-1 -2 -3 0
-6 -7 -8 0
-5 -7 -8 0
-5 -6 -8 0
-5 -6 -7 0
-10 -11 -12 0
-9 -11 -12 0
-9 -10 -12 0
-9 -10 -11 0
-14 -15 -16 0
-13 -15 -16 0
-13 -14 -16 0
-13 -14 -15 0
-18 -19 -20 0
-17 -19 -20 0
-17 -18 -20 0
-17 -18 -19 0
-22 -23 -24 0
-21 -23 -24 0
-21 -22 -24 0
-21 -22 -23 0
-26 -27 -28 0
-25 -27 -28 0
-25 -26 -28 0
-25 -26 -27 0
-30 -31 -32 0
-29 -31 -32 0
-29 -30 -32 0
-29 -30 -31 0
-34 -35 -36 0
-33 -35 -36 0
-33 -34 -36 0
-33 -34 -35 0
-38 -39 -40 0
-37 -39 -40 0
-37 -38 -40 0
-37 -38 -39 0
-42 -43 -44 0
-41 -43 -44 0
-41 -42 -44 0
-41 -42 -43 0
-46 -47 -48 0
-45 -47 -48 0
-45 -46 -48 0
-45 -46 -47 0
-50 -51 -52 0
-49 -51 -52 0
-49 -50 -52 0
-49 -50 -51 0
-54 -55 -56 0
-53 -55 -56 0
-53 -54 -56 0
-53 -54 -55 0
-57 -58 -59 0
-57 -58 -60 0
-57 -58 -61 0
-57 -59 -60 0
-57 -59 -61 0
-57 -60 -61 0
-58 -59 -60 0
-58 -59 -61 0
-58 -60 -61 0
-59 -60 -61 0
7 17 21 0
44 17 21 0
44 7 21 0
44 7 17 0
29 28 42 0
46 28 42 0
46 29 42 0
46 29 28 0
34 6 11 0
25 6 11 0
25 34 11 0
25 34 6 0
31 20 1 0
33 20 1 0
33 31 1 0
33 31 20 0
23 35 53 0
40 35 53 0
40 23 53 0
40 23 35 0
56 60 18 0
49 60 18 0
49 56 18 0
49 56 60 0
15 5 54 0
48 5 54 0
48 15 54 0
48 15 5 0
51 61 4 0
47 61 4 0
47 51 4 0
47 51 61 0
12 37 45 0
58 37 45 0
58 12 45 0
58 12 37 0
10 14 52 0
22 14 52 0
22 10 52 0
22 10 14 0
8 32 50 0
38 32 50 0
38 8 50 0
38 8 32 0
41 55 3 0
9 55 3 0
9 41 3 0
9 41 55 0
26 24 30 0
59 24 30 0
59 26 30 0
59 26 24 0
57 36 43 0
13 36 43 0
13 57 43 0
13 57 36 0
2 16 19 0
2 16 27 0
2 16 39 0
2 19 27 0
2 19 39 0
2 27 39 0
16 19 27 0
16 19 39 0
16 27 39 0
19 27 39 0
